SDVRP instances/custom_instances/p04_26_splitx10_0.vrp
NAME:p04_26_splitx10_
BEST_KNOWN: 0
COMMENT: 0
DIMENSION: 697
CAPACITY: 2000
EDGE_WEIGHT_FORMAT: FUNCTION
EDGE_WEIGHT_TYPE: EXACT_2D
NODE_COORD_SECTION
1 0.00000 0.00000
2 -32 -12
3 -32 -12
4 29 21
5 -3 33
6 -3 33
7 24 -4
8 24 -4
9 24 -4
10 24 -4
11 24 -4
12 24 -4
13 -12 9
14 -12 9
15 -12 9
16 -12 9
17 -12 9
18 -12 9
19 -26 -9
20 -26 -9
21 -26 -9
22 -26 -9
23 -26 -9
24 -7 26
25 -7 26
26 -7 26
27 -7 26
28 -7 26
29 -10 50
30 -10 50
31 -10 50
32 -10 50
33 -10 50
34 -43 -32
35 -43 -32
36 -43 -32
37 -43 -32
38 -43 -32
39 46 -26
40 46 -26
41 46 -26
42 46 -26
43 46 -26
44 46 -26
45 37 45
46 37 45
47 37 45
48 37 45
49 -38 6
50 -38 6
51 -38 6
52 -38 6
53 -7 -48
54 -7 -48
55 -7 -48
56 -7 -48
57 -23 -14
58 -23 -14
59 -23 -14
60 -23 -14
61 -23 -14
62 -23 -14
63 -23 -14
64 -42 30
65 -42 30
66 -42 30
67 -42 37
68 -42 37
69 -42 37
70 -42 37
71 -42 37
72 -28 5
73 -28 5
74 -28 5
75 -28 5
76 5 -49
77 5 -49
78 5 -49
79 5 -49
80 5 -49
81 -28 42
82 -28 42
83 -28 42
84 -28 42
85 -28 42
86 -35 -40
87 -35 -40
88 -35 -40
89 -35 -40
90 -35 -40
91 -35 -40
92 1 47
93 1 47
94 1 47
95 1 47
96 1 47
97 1 47
98 46 46
99 46 46
100 46 46
101 46 46
102 46 46
103 46 46
104 33 -8
105 33 -8
106 33 -8
107 -14 39
108 -14 39
109 -14 39
110 -14 39
111 -14 39
112 -14 39
113 15 41
114 15 41
115 15 41
116 15 41
117 15 41
118 15 41
119 -9 38
120 -9 38
121 -9 38
122 -9 38
123 -9 38
124 -9 38
125 25 27
126 25 27
127 25 27
128 25 27
129 25 27
130 25 27
131 -28 37
132 -28 37
133 -28 37
134 -28 37
135 46 -40
136 46 -40
137 46 -40
138 46 -40
139 46 -40
140 48 24
141 48 24
142 48 24
143 -37 40
144 -37 40
145 -37 40
146 -34 -15
147 -34 -15
148 -34 -15
149 -34 -15
150 24 16
151 24 16
152 24 16
153 24 16
154 -34 25
155 -34 25
156 -34 25
157 -34 25
158 -46 1
159 -46 1
160 -46 1
161 -46 1
162 -46 1
163 -28 44
164 -28 44
165 -28 44
166 -6 -31
167 -6 -31
168 -6 -31
169 -6 -31
170 -6 -31
171 45 15
172 45 15
173 45 15
174 45 15
175 -12 -36
176 -12 -36
177 -12 -36
178 -12 -36
179 38 37
180 38 37
181 38 37
182 38 37
183 38 37
184 -45 23
185 -45 23
186 -45 23
187 26 -2
188 26 -2
189 26 -2
190 26 -2
191 26 -2
192 -36 41
193 -36 41
194 -36 41
195 -36 41
196 -36 41
197 -49 33
198 -49 33
199 -49 33
200 -39 23
201 -39 23
202 -39 23
203 -39 23
204 -39 23
205 24 -29
206 24 -29
207 24 -29
208 24 -29
209 34 -11
210 34 -11
211 34 -11
212 34 -11
213 34 -11
214 34 -11
215 50 40
216 50 40
217 50 40
218 50 40
219 50 40
220 -44 -6
221 -44 -6
222 -44 -6
223 -44 -6
224 -44 -6
225 -44 -6
226 15 18
227 15 18
228 15 18
229 15 18
230 15 18
231 15 18
232 7 5
233 7 5
234 7 5
235 7 5
236 -27 24
237 -27 24
238 -27 24
239 -27 24
240 -27 24
241 -27 24
242 8 32
243 8 32
244 8 32
245 8 32
246 8 32
247 8 32
248 38 8
249 38 8
250 38 8
251 38 8
252 38 8
253 38 8
254 23 31
255 23 31
256 23 31
257 23 31
258 -35 49
259 -35 49
260 -35 49
261 -35 49
262 -35 49
263 42 -15
264 42 -15
265 42 -15
266 42 -15
267 42 -15
268 39 -23
269 39 -23
270 32 15
271 32 15
272 44 -40
273 44 -40
274 44 -40
275 -24 22
276 -24 22
277 -24 22
278 -20 16
279 -20 16
280 -20 16
281 -20 16
282 -20 16
283 -46 3
284 -46 3
285 -46 3
286 -46 3
287 43 -32
288 43 -32
289 43 -32
290 43 -32
291 -32 -42
292 -32 -42
293 -32 -42
294 -32 -42
295 31 -16
296 31 -16
297 31 -16
298 31 -16
299 31 -16
300 31 -16
301 31 -16
302 -16 -12
303 -16 -12
304 -16 -12
305 -16 -12
306 -16 -12
307 -26 -3
308 -26 -3
309 -26 -3
310 -26 -3
311 -26 -3
312 7 4
313 7 4
314 7 4
315 7 4
316 39 44
317 39 44
318 39 44
319 39 44
320 39 44
321 -25 -33
322 -25 -33
323 -25 -33
324 -25 -33
325 -25 -33
326 35 -30
327 35 -30
328 35 -30
329 35 -30
330 -45 -7
331 -45 -7
332 -45 -7
333 -45 -7
334 -45 -7
335 -45 -7
336 -31 25
337 -31 25
338 -31 25
339 -31 25
340 25 -46
341 25 -46
342 25 -46
343 25 -46
344 25 -46
345 25 -46
346 25 -46
347 16 18
348 16 18
349 16 18
350 16 18
351 16 18
352 -11 47
353 -11 47
354 -11 47
355 18 -43
356 18 -43
357 18 -43
358 18 -43
359 -11 44
360 -11 44
361 -11 44
362 -11 44
363 -11 44
364 -11 44
365 24 4
366 24 4
367 24 4
368 24 4
369 24 4
370 24 4
371 -25 13
372 -25 13
373 -25 13
374 -25 13
375 -25 13
376 -25 13
377 -14 -37
378 -14 -37
379 -14 -37
380 -14 -37
381 -8 -28
382 -8 -28
383 -8 -28
384 -5 4
385 -5 4
386 -5 4
387 -5 4
388 7 -16
389 7 -16
390 7 -16
391 7 -16
392 7 -16
393 7 -16
394 -42 -27
395 -42 -27
396 -42 -27
397 -15 -4
398 -15 -4
399 -15 -4
400 -15 -4
401 -38 -9
402 -38 -9
403 -38 -9
404 -38 -9
405 -38 -9
406 -23 36
407 -23 36
408 -23 36
409 -23 36
410 -15 19
411 -15 19
412 -15 19
413 -15 19
414 -15 19
415 -31 28
416 -31 28
417 -31 28
418 -31 28
419 -31 28
420 -48 19
421 -48 19
422 -48 19
423 -48 19
424 -48 19
425 -48 19
426 -48 19
427 -42 18
428 -42 18
429 -42 18
430 -42 18
431 -42 18
432 -42 18
433 -42 18
434 30 -5
435 30 -5
436 30 -5
437 30 -5
438 30 -5
439 1 -17
440 1 -17
441 1 -17
442 1 -17
443 1 -17
444 1 -17
445 -3 -4
446 -3 -4
447 -3 -4
448 3 -13
449 3 -13
450 3 -13
451 34 20
452 34 20
453 34 20
454 34 20
455 34 20
456 -44 -11
457 -44 -11
458 -44 -11
459 -44 -11
460 -44 -11
461 -44 -11
462 -43 -14
463 -43 -14
464 -43 -14
465 -43 -14
466 -43 -14
467 29 -27
468 29 -27
469 29 -27
470 29 -27
471 29 -27
472 29 -27
473 29 -27
474 29 -27
475 32 -21
476 32 -21
477 32 -21
478 32 -21
479 32 -21
480 22 -47
481 22 -47
482 22 -47
483 22 -47
484 22 -47
485 22 -47
486 22 -47
487 22 -47
488 32 -38
489 32 -38
490 32 -38
491 32 -38
492 -49 -44
493 -49 -44
494 -9 -44
495 -9 -44
496 -9 -44
497 -9 -44
498 -9 -44
499 31 -1
500 31 -1
501 31 -1
502 31 -1
503 31 -1
504 31 -1
505 41 -45
506 41 -45
507 41 -45
508 41 -45
509 41 -45
510 41 -45
511 41 -45
512 50 -11
513 50 -11
514 50 -11
515 50 -11
516 50 -11
517 -35 -45
518 -35 -45
519 -35 -45
520 -35 -45
521 -35 -45
522 -17 3
523 -17 3
524 -17 3
525 -17 3
526 -46 -30
527 -46 -30
528 -46 -30
529 -46 -30
530 -26 50
531 -26 50
532 -26 50
533 -26 50
534 12 48
535 12 48
536 12 48
537 12 48
538 12 48
539 12 48
540 -7 -14
541 -7 -14
542 -7 -14
543 -7 -14
544 -7 -14
545 -7 -14
546 -39 45
547 19 -41
548 19 -41
549 19 -41
550 19 -41
551 19 -41
552 19 -41
553 49 -38
554 49 -38
555 49 -38
556 -3 -25
557 -3 -25
558 -3 -25
559 -3 -25
560 -31 25
561 -31 25
562 -31 25
563 -31 25
564 -31 25
565 26 40
566 26 40
567 26 40
568 26 40
569 26 40
570 -30 -36
571 -30 -36
572 -30 -36
573 -30 -36
574 -30 -36
575 -30 -36
576 -30 -36
577 4 -20
578 4 -20
579 4 -20
580 4 -20
581 4 -20
582 4 -20
583 -1 35
584 -1 35
585 -1 35
586 -9 -16
587 -9 -16
588 -9 -16
589 -16 -33
590 -16 -33
591 -16 -33
592 -16 -33
593 36 -20
594 36 -20
595 36 -20
596 36 -20
597 0 33
598 0 33
599 0 33
600 0 33
601 -6 -49
602 -6 -49
603 -6 -49
604 -14 -44
605 -14 -44
606 -14 -44
607 -14 -44
608 -14 -44
609 -14 -44
610 -20 36
611 -20 36
612 -20 36
613 -20 36
614 -20 36
615 -43 -15
616 -43 -15
617 -43 -15
618 -33 13
619 -33 13
620 -33 13
621 -33 13
622 -33 13
623 -33 13
624 -33 13
625 -27 41
626 -27 41
627 -27 41
628 -27 41
629 -27 41
630 16 -23
631 16 -23
632 16 -23
633 16 -23
634 16 -23
635 18 4
636 18 4
637 18 4
638 5 -13
639 5 -13
640 5 -13
641 5 -13
642 5 -13
643 -33 -48
644 -33 -48
645 -10 -45
646 -10 -45
647 -10 -45
648 -10 -45
649 -10 -45
650 50 -24
651 50 -24
652 50 -24
653 -27 37
654 -27 37
655 -27 37
656 -27 37
657 -27 37
658 29 -34
659 29 -34
660 50 21
661 50 21
662 50 21
663 50 21
664 50 21
665 50 21
666 37 -35
667 37 -35
668 37 -35
669 37 -35
670 37 -35
671 37 -35
672 16 -20
673 16 -20
674 16 -20
675 -8 35
676 -8 35
677 -8 35
678 -8 35
679 -8 35
680 -36 35
681 -36 35
682 -36 35
683 -21 -21
684 -21 -21
685 -21 -21
686 -21 -21
687 -21 -21
688 -21 -21
689 -21 -21
690 -29 32
691 -29 32
692 -29 32
693 -29 32
694 11 -18
695 11 -18
696 11 -18
697 11 -18
DEMAND_SECTION
1 0
2 400
3 20
4 400
5 400
6 100
7 400
8 200
9 20
10 20
11 20
12 10
13 400
14 100
15 20
16 20
17 20
18 20
19 200
20 20
21 20
22 20
23 20
24 400
25 100
26 20
27 20
28 20
29 200
30 20
31 20
32 20
33 10
34 400
35 200
36 100
37 20
38 20
39 400
40 400
41 100
42 20
43 20
44 20
45 200
46 100
47 20
48 10
49 400
50 20
51 20
52 10
53 400
54 20
55 20
56 20
57 400
58 400
59 100
60 20
61 20
62 20
63 20
64 200
65 100
66 20
67 200
68 100
69 20
70 20
71 20
72 400
73 200
74 100
75 20
76 400
77 100
78 20
79 20
80 20
81 200
82 20
83 20
84 20
85 10
86 200
87 100
88 20
89 20
90 20
91 20
92 200
93 20
94 20
95 20
96 20
97 10
98 400
99 200
100 100
101 20
102 20
103 20
104 400
105 20
106 20
107 400
108 200
109 100
110 20
111 20
112 20
113 400
114 200
115 20
116 20
117 20
118 20
119 400
120 400
121 20
122 20
123 20
124 10
125 200
126 20
127 20
128 20
129 20
130 10
131 400
132 400
133 100
134 20
135 400
136 400
137 100
138 20
139 10
140 400
141 200
142 10
143 400
144 400
145 100
146 400
147 20
148 20
149 10
150 400
151 200
152 100
153 20
154 400
155 200
156 20
157 20
158 200
159 20
160 20
161 20
162 20
163 400
164 200
165 20
166 400
167 400
168 100
169 20
170 10
171 400
172 20
173 20
174 20
175 400
176 400
177 20
178 20
179 400
180 200
181 20
182 20
183 10
184 400
185 200
186 20
187 200
188 100
189 20
190 20
191 10
192 200
193 20
194 20
195 20
196 10
197 400
198 400
199 10
200 200
201 20
202 20
203 20
204 10
205 400
206 200
207 20
208 10
209 400
210 200
211 20
212 20
213 20
214 20
215 400
216 400
217 100
218 20
219 10
220 400
221 200
222 20
223 20
224 20
225 10
226 400
227 400
228 20
229 20
230 20
231 10
232 400
233 400
234 20
235 10
236 400
237 200
238 100
239 20
240 20
241 20
242 400
243 200
244 100
245 20
246 20
247 20
248 400
249 200
250 20
251 20
252 20
253 20
254 400
255 200
256 100
257 10
258 400
259 20
260 20
261 20
262 10
263 400
264 200
265 20
266 20
267 10
268 400
269 200
270 400
271 20
272 400
273 400
274 100
275 200
276 100
277 10
278 400
279 400
280 20
281 20
282 10
283 400
284 400
285 100
286 20
287 400
288 20
289 20
290 10
291 200
292 100
293 20
294 20
295 400
296 400
297 100
298 20
299 20
300 20
301 10
302 400
303 200
304 100
305 20
306 20
307 200
308 20
309 20
310 20
311 10
312 200
313 100
314 20
315 20
316 400
317 200
318 20
319 20
320 20
321 400
322 200
323 100
324 20
325 20
326 200
327 20
328 20
329 10
330 400
331 400
332 100
333 20
334 20
335 20
336 400
337 20
338 20
339 20
340 400
341 200
342 100
343 20
344 20
345 20
346 20
347 400
348 400
349 100
350 20
351 10
352 200
353 100
354 20
355 200
356 100
357 20
358 10
359 400
360 200
361 20
362 20
363 20
364 10
365 200
366 20
367 20
368 20
369 20
370 10
371 400
372 100
373 20
374 20
375 20
376 10
377 400
378 400
379 20
380 10
381 400
382 200
383 20
384 400
385 400
386 100
387 10
388 200
389 100
390 20
391 20
392 20
393 20
394 400
395 200
396 20
397 200
398 100
399 20
400 20
401 400
402 400
403 20
404 20
405 20
406 400
407 200
408 20
409 10
410 400
411 20
412 20
413 20
414 20
415 400
416 100
417 20
418 20
419 20
420 400
421 200
422 100
423 20
424 20
425 20
426 20
427 400
428 100
429 20
430 20
431 20
432 20
433 10
434 200
435 20
436 20
437 20
438 10
439 200
440 20
441 20
442 20
443 20
444 10
445 400
446 200
447 10
448 200
449 100
450 20
451 400
452 100
453 20
454 20
455 10
456 200
457 100
458 20
459 20
460 20
461 10
462 400
463 400
464 20
465 20
466 20
467 400
468 200
469 100
470 20
471 20
472 20
473 20
474 10
475 400
476 400
477 20
478 20
479 10
480 400
481 400
482 100
483 20
484 20
485 20
486 20
487 10
488 400
489 20
490 20
491 10
492 400
493 400
494 400
495 400
496 20
497 20
498 20
499 400
500 20
501 20
502 20
503 20
504 10
505 400
506 200
507 100
508 20
509 20
510 20
511 20
512 400
513 400
514 100
515 20
516 20
517 200
518 20
519 20
520 20
521 10
522 400
523 20
524 20
525 10
526 200
527 20
528 20
529 20
530 200
531 100
532 20
533 10
534 400
535 400
536 100
537 20
538 20
539 20
540 400
541 400
542 20
543 20
544 20
545 20
546 400
547 400
548 100
549 20
550 20
551 20
552 10
553 400
554 200
555 20
556 400
557 400
558 20
559 10
560 200
561 100
562 20
563 20
564 10
565 400
566 400
567 100
568 20
569 10
570 400
571 200
572 100
573 20
574 20
575 20
576 10
577 400
578 400
579 20
580 20
581 20
582 20
583 400
584 200
585 100
586 400
587 20
588 10
589 400
590 200
591 20
592 20
593 400
594 100
595 20
596 20
597 200
598 100
599 20
600 20
601 400
602 400
603 20
604 400
605 100
606 20
607 20
608 20
609 20
610 400
611 200
612 100
613 20
614 10
615 200
616 100
617 20
618 400
619 400
620 100
621 20
622 20
623 20
624 20
625 400
626 400
627 100
628 20
629 20
630 400
631 200
632 100
633 20
634 20
635 400
636 400
637 20
638 400
639 100
640 20
641 20
642 20
643 400
644 200
645 400
646 200
647 100
648 20
649 20
650 400
651 100
652 20
653 200
654 100
655 20
656 20
657 20
658 200
659 100
660 400
661 20
662 20
663 20
664 20
665 10
666 400
667 200
668 100
669 20
670 20
671 20
672 400
673 100
674 10
675 400
676 400
677 100
678 20
679 10
680 200
681 100
682 20
683 400
684 200
685 20
686 20
687 20
688 20
689 10
690 400
691 200
692 100
693 10
694 400
695 400
696 20
697 10
DEPOT_SECTION
1
-1
EOF