SDVRP instances/custom_instances/p04_26_splitx10_0.sol
696 -6 7 9 189 186 188 187 190 634 636 635 311 -10 11 8 437 435 433 436 434 515 511 513 512 514 262 263 264 266 265 -15 16 14 13 277 281 278 521 523 445 444 446 -17 12 154 153 563 338 336 559 561 335 337 237 239 275 276 -20 19 21 22 18 2 1 400 401 404 403 402 399 396 397 398 -26 23 5 4 582 584 583 599 596 598 597 -27 24 25 120 122 118 119 123 121 676 678 677 675 674 -31 29 30 32 28 351 353 352 360 359 361 363 362 358 107 106 110 108 -36 33 37 35 34 525 526 528 527 394 393 395 61 303 302 305 304 -71 621 623 619 622 620 617 618 371 372 375 373 374 370 -78 79 75 77 76 354 546 547 206 205 204 207 672 -92 96 95 94 91 93 536 537 534 535 533 538 115 116 114 117 113 112 -104 105 103 211 209 213 210 212 208 295 299 294 -111 109 529 530 532 531 260 258 259 261 257 163 164 162 84 82 83 81 624 656 654 -134 137 135 138 136 554 552 553 287 286 288 289 -148 145 146 147 616 614 615 461 464 463 462 465 456 458 459 460 457 455 -152 3 140 139 141 664 659 663 661 660 662 171 172 170 173 -156 155 199 202 203 201 200 64 65 63 196 197 198 70 69 68 66 67 274 -161 160 159 158 157 282 284 285 283 48 50 49 51 74 72 73 522 524 -168 166 169 165 167 381 380 382 544 539 542 -174 606 604 603 605 608 607 646 496 494 497 493 495 442 443 -177 176 175 376 378 379 377 591 588 590 589 -181 182 179 101 100 97 98 102 99 218 217 215 216 214 313 314 -185 183 184 421 424 419 425 420 423 422 430 426 427 431 429 432 428 -194 195 191 192 193 545 143 142 144 680 679 681 416 417 280 279 -227 228 229 126 129 125 127 128 124 567 568 565 564 566 253 254 255 256 -232 149 150 151 348 346 347 -234 233 231 230 225 226 243 242 246 241 244 245 -236 238 240 235 560 562 418 414 415 691 690 692 689 -300 296 297 298 650 651 649 39 42 38 41 40 43 467 468 470 472 469 -301 59 62 60 56 57 58 682 684 683 685 -306 309 310 308 307 223 220 224 219 222 221 334 333 329 330 331 332 -312 270 269 248 251 249 247 252 250 502 503 498 499 500 501 367 368 365 366 364 369 -320 322 321 323 324 292 291 290 293 518 517 519 516 520 642 643 -349 350 44 46 47 45 316 315 319 317 318 178 180 451 450 452 454 453 -357 355 356 483 485 479 481 480 482 484 486 342 339 343 340 345 341 344 549 548 550 551 -385 383 384 386 -387 388 577 581 579 578 576 580 558 555 556 -413 410 412 409 411 405 407 408 406 609 612 610 611 613 -466 669 668 670 665 667 666 489 487 490 658 657 389 392 391 390 640 -471 473 327 328 326 325 273 271 272 505 510 506 507 508 509 504 488 -476 474 477 478 475 268 267 595 594 593 592 -541 543 540 587 586 585 438 440 439 441 448 447 449 641 639 637 638 -557 602 601 600 55 54 52 53 644 645 648 647 -570 572 569 571 573 574 575 88 86 85 89 90 87 491 492 686 688 687 -627 625 628 626 80 131 130 133 132 652 655 653 -671 673 632 629 631 633 630 694 696 695 693 0 





OBJ=
4387.022
BEST_KNOWN=
0.000